Minimize
  8 x_mango_bubble_tea + 6 x_lychee_bubble_tea
Subject To
  c1: 4 x_mango_bubble_tea <= 0
  c2: 6 x_lychee_bubble_tea <= 0
  c3: x_lychee_bubble_tea - 0.0 x_mango_bubble_tea >= 0
  c4: x_mango_bubble_tea - x_lychee_bubble_tea >= 0
End